(set-info :smt-lib-version 2.6)
(set-logic QF_NIA)
(set-info :source |
Generated by: Cristina Borralleras, Daniel Larraz, Albert Oliveras, Enric Rodriguez-Carbonell, Albert Rubio
Generated on: 2017-04-27
Generator: VeryMax
Application: Termination proving
Target solver: barcelogic
|)
(set-info :license "https://creativecommons.org/licenses/by/4.0/")
(set-info :category "industrial")
(set-info :status unsat)
(declare-fun Nl2MAX^01 () Int)
(declare-fun Nl2MIN^01 () Int)
(declare-fun Nl2j_min^01 () Int)
(declare-fun Nl2num^01 () Int)
(declare-fun Nl2pid^01 () Int)
(declare-fun lam0n0 () Int)
(declare-fun lam0n1 () Int)
(declare-fun lam0n2 () Int)
(declare-fun lam0n3 () Int)
(declare-fun lam0n4 () Int)
(declare-fun lam0n5 () Int)
(declare-fun lam0n6 () Int)
(declare-fun lam0n7 () Int)
(declare-fun lam0n8 () Int)
(declare-fun lam0n9 () Int)
(declare-fun lam0n10 () Int)
(declare-fun lam0n12 () Int)
(declare-fun Nl2CT1 () Int)
(declare-fun lam0n11 () Int)
(declare-fun lam1n0 () Int)
(declare-fun lam1n1 () Int)
(declare-fun lam1n2 () Int)
(declare-fun lam1n3 () Int)
(declare-fun lam1n4 () Int)
(declare-fun lam1n5 () Int)
(declare-fun lam1n6 () Int)
(declare-fun lam1n7 () Int)
(declare-fun lam1n8 () Int)
(declare-fun lam1n9 () Int)
(declare-fun lam1n10 () Int)
(declare-fun lam1n12 () Int)
(declare-fun lam1n11 () Int)
(declare-fun lam2n0 () Int)
(declare-fun lam2n1 () Int)
(declare-fun lam2n2 () Int)
(declare-fun lam2n3 () Int)
(declare-fun lam2n4 () Int)
(declare-fun lam2n5 () Int)
(declare-fun lam2n6 () Int)
(declare-fun lam2n7 () Int)
(declare-fun lam2n8 () Int)
(declare-fun lam2n9 () Int)
(declare-fun lam2n10 () Int)
(declare-fun lam2n12 () Int)
(declare-fun lam2n11 () Int)
(declare-fun lam3n0 () Int)
(declare-fun lam3n1 () Int)
(declare-fun lam3n2 () Int)
(declare-fun lam3n3 () Int)
(declare-fun lam3n4 () Int)
(declare-fun lam3n5 () Int)
(declare-fun lam3n6 () Int)
(declare-fun lam3n7 () Int)
(declare-fun lam3n8 () Int)
(declare-fun lam3n9 () Int)
(declare-fun lam3n10 () Int)
(declare-fun lam3n12 () Int)
(declare-fun lam3n11 () Int)
(declare-fun lam4n0 () Int)
(declare-fun lam4n1 () Int)
(declare-fun lam4n2 () Int)
(declare-fun lam4n3 () Int)
(declare-fun lam4n7 () Int)
(declare-fun lam4n8 () Int)
(declare-fun lam4n4 () Int)
(declare-fun lam4n5 () Int)
(declare-fun lam4n6 () Int)
(declare-fun undef133 () Int)
(declare-fun undef135 () Int)
(declare-fun undef141 () Int)
(declare-fun undef143 () Int)
(declare-fun MIN^0 () Int)
(declare-fun j_min^0 () Int)
(declare-fun pid^0 () Int)
(declare-fun MAX^0 () Int)
(declare-fun num^0 () Int)
(declare-fun lam8n0 () Int)
(declare-fun lam8n1 () Int)
(declare-fun lam8n2 () Int)
(declare-fun lam8n3 () Int)
(declare-fun lam8n4 () Int)
(declare-fun lam8n5 () Int)
(declare-fun lam8n6 () Int)
(declare-fun lam8n7 () Int)
(declare-fun lam8n8 () Int)
(declare-fun lam8n9 () Int)
(declare-fun lam8n10 () Int)
(declare-fun lam8n11 () Int)
(declare-fun lam8n12 () Int)
(declare-fun lam8n13 () Int)
(declare-fun lam8n14 () Int)
(declare-fun lam8n15 () Int)
(declare-fun lam8n16 () Int)
(declare-fun lam8n17 () Int)
(declare-fun lam8n18 () Int)
(declare-fun lam8n19 () Int)
(declare-fun lam8n20 () Int)
(declare-fun lam8n21 () Int)
(declare-fun lam8n22 () Int)
(declare-fun lam8n23 () Int)
(declare-fun lam8n24 () Int)
(declare-fun lam8n25 () Int)
(declare-fun lam8n27 () Int)
(declare-fun RFN1_CT () Int)
(declare-fun RFN1_MAX^0 () Int)
(declare-fun RFN1_num^0 () Int)
(declare-fun lam8n26 () Int)
(declare-fun RFN1_MIN^0 () Int)
(declare-fun RFN1_j_min^0 () Int)
(declare-fun RFN1_pid^0 () Int)
(declare-fun lam6n0 () Int)
(declare-fun lam6n1 () Int)
(declare-fun lam6n2 () Int)
(declare-fun lam6n3 () Int)
(declare-fun lam6n4 () Int)
(declare-fun lam6n5 () Int)
(declare-fun lam6n6 () Int)
(declare-fun lam6n7 () Int)
(declare-fun lam6n8 () Int)
(declare-fun lam6n9 () Int)
(declare-fun lam6n10 () Int)
(declare-fun lam6n11 () Int)
(declare-fun lam6n12 () Int)
(declare-fun lam6n13 () Int)
(declare-fun lam6n14 () Int)
(declare-fun lam6n15 () Int)
(declare-fun lam6n16 () Int)
(declare-fun lam6n17 () Int)
(declare-fun lam6n18 () Int)
(declare-fun lam6n19 () Int)
(declare-fun lam6n20 () Int)
(declare-fun lam6n21 () Int)
(declare-fun lam6n22 () Int)
(declare-fun lam6n23 () Int)
(declare-fun lam6n24 () Int)
(declare-fun lam6n25 () Int)
(declare-fun lam6n27 () Int)
(declare-fun lam6n26 () Int)
(declare-fun lam7n0 () Int)
(declare-fun lam7n1 () Int)
(declare-fun lam7n2 () Int)
(declare-fun lam7n3 () Int)
(declare-fun lam7n4 () Int)
(declare-fun lam7n5 () Int)
(declare-fun lam7n6 () Int)
(declare-fun lam7n7 () Int)
(declare-fun lam7n8 () Int)
(declare-fun lam7n9 () Int)
(declare-fun lam7n10 () Int)
(declare-fun lam7n11 () Int)
(declare-fun lam7n12 () Int)
(declare-fun lam7n13 () Int)
(declare-fun lam7n14 () Int)
(declare-fun lam7n15 () Int)
(declare-fun lam7n16 () Int)
(declare-fun lam7n17 () Int)
(declare-fun lam7n18 () Int)
(declare-fun lam7n19 () Int)
(declare-fun lam7n20 () Int)
(declare-fun lam7n21 () Int)
(declare-fun lam7n22 () Int)
(declare-fun lam7n23 () Int)
(declare-fun lam7n24 () Int)
(declare-fun lam7n25 () Int)
(declare-fun lam7n27 () Int)
(declare-fun lam7n26 () Int)
(declare-fun lam5n0 () Int)
(declare-fun lam5n1 () Int)
(declare-fun lam5n2 () Int)
(declare-fun lam5n3 () Int)
(declare-fun lam5n4 () Int)
(declare-fun lam5n5 () Int)
(declare-fun lam5n6 () Int)
(declare-fun lam5n7 () Int)
(declare-fun lam5n8 () Int)
(declare-fun lam5n9 () Int)
(declare-fun lam5n10 () Int)
(declare-fun lam5n11 () Int)
(declare-fun lam5n12 () Int)
(declare-fun lam5n13 () Int)
(declare-fun lam5n14 () Int)
(declare-fun lam5n15 () Int)
(declare-fun lam5n16 () Int)
(declare-fun lam5n17 () Int)
(declare-fun lam5n18 () Int)
(declare-fun lam5n19 () Int)
(declare-fun lam5n20 () Int)
(declare-fun lam5n21 () Int)
(declare-fun lam5n22 () Int)
(declare-fun lam5n23 () Int)
(declare-fun lam5n24 () Int)
(declare-fun lam5n25 () Int)
(declare-fun lam5n27 () Int)
(declare-fun lam5n26 () Int)
(assert ( and ( <= ( - 1 ) Nl2MAX^01 ) ( <= Nl2MAX^01 1 ) ( <= ( - 1 ) Nl2MIN^01 ) ( <= Nl2MIN^01 1 ) ( <= ( - 1 ) Nl2j_min^01 ) ( <= Nl2j_min^01 1 ) ( <= ( - 1 ) Nl2num^01 ) ( <= Nl2num^01 1 ) ( <= ( - 1 ) Nl2pid^01 ) ( <= Nl2pid^01 1 ) ))
(assert ( or ( and ( >= lam0n0 0 ) ( >= lam0n1 0 ) ( >= lam0n2 0 ) ( >= lam0n3 0 ) ( >= lam0n4 0 ) ( >= lam0n5 0 ) ( >= lam0n6 0 ) ( >= lam0n7 0 ) ( >= lam0n8 0 ) ( >= lam0n9 0 ) ( >= lam0n10 0 ) ( >= lam0n12 0 ) ( > ( + ( * 1 lam0n5 ) ( * 1 lam0n6 ) ( * 1 lam0n7 ) ( * 1 lam0n8 ) ( * ( - 1 ) lam0n9 ) ( * ( - 1 ) lam0n10 ) ( * Nl2CT1 lam0n12 ) ( - 1 ) ) 0 ) ( = ( + ( * 1 lam0n0 ) ( * ( - 1 ) lam0n1 ) ( * 1 lam0n5 ) ( * ( - 1 ) lam0n6 ) ( * ( - 1 ) lam0n7 ) ( * ( - 1 ) lam0n9 ) ( * ( - 1 ) lam0n10 ) ( * 1 lam0n11 ) ( * Nl2MAX^01 lam0n12 ) ) 0 ) ( = ( + ( * ( - 1 ) lam0n1 ) ( * 1 lam0n5 ) ( * ( - 1 ) lam0n8 ) ( * 1 lam0n9 ) ( * ( - 1 ) lam0n10 ) ( * Nl2MIN^01 lam0n12 ) ) 0 ) ( = ( + ( * ( - 1 ) lam0n0 ) ( * ( - 1 ) lam0n2 ) ( * ( - 1 ) lam0n5 ) ( * ( - 1 ) lam0n6 ) ( * Nl2j_min^01 lam0n12 ) ) 0 ) ( = ( + ( * ( - 1 ) lam0n0 ) ( * ( - 1 ) lam0n1 ) ( * ( - 1 ) lam0n3 ) ( * ( - 1 ) lam0n5 ) ( * 1 lam0n7 ) ( * ( - 1 ) lam0n11 ) ( * Nl2num^01 lam0n12 ) ) 0 ) ( = ( + ( * ( - 1 ) lam0n0 ) ( * 1 lam0n2 ) ( * ( - 1 ) lam0n4 ) ( * 1 lam0n5 ) ( * ( - 1 ) lam0n7 ) ( * ( - 1 ) lam0n9 ) ( * Nl2pid^01 lam0n12 ) ) 0 ) ) ( and ( >= lam1n0 0 ) ( >= lam1n1 0 ) ( >= lam1n2 0 ) ( >= lam1n3 0 ) ( >= lam1n4 0 ) ( >= lam1n5 0 ) ( >= lam1n6 0 ) ( >= lam1n7 0 ) ( >= lam1n8 0 ) ( >= lam1n9 0 ) ( >= lam1n10 0 ) ( >= lam1n12 0 ) ( > ( + ( * 1 lam1n5 ) ( * 1 lam1n6 ) ( * 1 lam1n7 ) ( * 1 lam1n8 ) ( * ( - 1 ) lam1n9 ) ( * ( - 1 ) lam1n10 ) ( * Nl2CT1 lam1n12 ) ( - 1 ( + ( + Nl2CT1 ( * Nl2MAX^01 1 ) ) ( * Nl2num^01 1 ) ) ) ) 0 ) ( = ( + ( * 1 lam1n0 ) ( * ( - 1 ) lam1n1 ) ( * 1 lam1n5 ) ( * ( - 1 ) lam1n6 ) ( * ( - 1 ) lam1n7 ) ( * ( - 1 ) lam1n9 ) ( * ( - 1 ) lam1n10 ) ( * 1 lam1n11 ) ( * Nl2MAX^01 lam1n12 ) ( - ( + ( + 0 ( * Nl2MAX^01 1 ) ) ( * Nl2num^01 1 ) ) ) ) 0 ) ( = ( + ( * ( - 1 ) lam1n1 ) ( * 1 lam1n5 ) ( * ( - 1 ) lam1n8 ) ( * 1 lam1n9 ) ( * ( - 1 ) lam1n10 ) ( * Nl2MIN^01 lam1n12 ) ( - ( + 0 Nl2MIN^01 ) ) ) 0 ) ( = ( + ( * ( - 1 ) lam1n0 ) ( * ( - 1 ) lam1n2 ) ( * ( - 1 ) lam1n5 ) ( * ( - 1 ) lam1n6 ) ( * Nl2j_min^01 lam1n12 ) ( - ( + 0 Nl2j_min^01 ) ) ) 0 ) ( = ( + ( * ( - 1 ) lam1n0 ) ( * ( - 1 ) lam1n1 ) ( * ( - 1 ) lam1n3 ) ( * ( - 1 ) lam1n5 ) ( * 1 lam1n7 ) ( * ( - 1 ) lam1n11 ) ( * Nl2num^01 lam1n12 ) ) 0 ) ( = ( + ( * ( - 1 ) lam1n0 ) ( * 1 lam1n2 ) ( * ( - 1 ) lam1n4 ) ( * 1 lam1n5 ) ( * ( - 1 ) lam1n7 ) ( * ( - 1 ) lam1n9 ) ( * Nl2pid^01 lam1n12 ) ( - ( + 0 Nl2pid^01 ) ) ) 0 ) ) ))
(assert ( or ( and ( >= lam2n0 0 ) ( >= lam2n1 0 ) ( >= lam2n2 0 ) ( >= lam2n3 0 ) ( >= lam2n4 0 ) ( >= lam2n5 0 ) ( >= lam2n6 0 ) ( >= lam2n7 0 ) ( >= lam2n8 0 ) ( >= lam2n9 0 ) ( >= lam2n10 0 ) ( >= lam2n12 0 ) ( > ( + ( * 1 lam2n4 ) ( * 1 lam2n5 ) ( * 1 lam2n6 ) ( * 1 lam2n7 ) ( * 1 lam2n8 ) ( * ( - 1 ) lam2n9 ) ( * ( - 1 ) lam2n10 ) ( * Nl2CT1 lam2n12 ) ( - 1 ) ) 0 ) ( = ( + ( * 1 lam2n0 ) ( * ( - 1 ) lam2n1 ) ( * 1 lam2n4 ) ( * ( - 1 ) lam2n5 ) ( * ( - 1 ) lam2n6 ) ( * ( - 1 ) lam2n9 ) ( * ( - 1 ) lam2n10 ) ( * 1 lam2n11 ) ( * Nl2MAX^01 lam2n12 ) ) 0 ) ( = ( + ( * ( - 1 ) lam2n1 ) ( * 1 lam2n4 ) ( * ( - 1 ) lam2n7 ) ( * ( - 1 ) lam2n8 ) ( * 1 lam2n9 ) ( * ( - 1 ) lam2n10 ) ( * Nl2MIN^01 lam2n12 ) ) 0 ) ( = ( + ( * ( - 1 ) lam2n0 ) ( * ( - 1 ) lam2n4 ) ( * ( - 1 ) lam2n5 ) ( * Nl2j_min^01 lam2n12 ) ) 0 ) ( = ( + ( * ( - 1 ) lam2n0 ) ( * ( - 1 ) lam2n1 ) ( * ( - 1 ) lam2n2 ) ( * ( - 1 ) lam2n4 ) ( * 1 lam2n6 ) ( * 1 lam2n8 ) ( * ( - 1 ) lam2n11 ) ( * Nl2num^01 lam2n12 ) ) 0 ) ( = ( + ( * ( - 1 ) lam2n0 ) ( * ( - 1 ) lam2n3 ) ( * 1 lam2n4 ) ( * ( - 1 ) lam2n6 ) ( * ( - 1 ) lam2n9 ) ( * Nl2pid^01 lam2n12 ) ) 0 ) ) ( and ( >= lam3n0 0 ) ( >= lam3n1 0 ) ( >= lam3n2 0 ) ( >= lam3n3 0 ) ( >= lam3n4 0 ) ( >= lam3n5 0 ) ( >= lam3n6 0 ) ( >= lam3n7 0 ) ( >= lam3n8 0 ) ( >= lam3n9 0 ) ( >= lam3n10 0 ) ( >= lam3n12 0 ) ( > ( + ( * 1 lam3n4 ) ( * 1 lam3n5 ) ( * 1 lam3n6 ) ( * 1 lam3n7 ) ( * 1 lam3n8 ) ( * ( - 1 ) lam3n9 ) ( * ( - 1 ) lam3n10 ) ( * Nl2CT1 lam3n12 ) ( - 1 ( + ( + Nl2CT1 ( * Nl2MAX^01 1 ) ) ( * Nl2num^01 1 ) ) ) ) 0 ) ( = ( + ( * 1 lam3n0 ) ( * ( - 1 ) lam3n1 ) ( * 1 lam3n4 ) ( * ( - 1 ) lam3n5 ) ( * ( - 1 ) lam3n6 ) ( * ( - 1 ) lam3n9 ) ( * ( - 1 ) lam3n10 ) ( * 1 lam3n11 ) ( * Nl2MAX^01 lam3n12 ) ( - ( + ( + 0 ( * Nl2MAX^01 1 ) ) ( * Nl2num^01 1 ) ) ) ) 0 ) ( = ( + ( * ( - 1 ) lam3n1 ) ( * 1 lam3n4 ) ( * ( - 1 ) lam3n7 ) ( * ( - 1 ) lam3n8 ) ( * 1 lam3n9 ) ( * ( - 1 ) lam3n10 ) ( * Nl2MIN^01 lam3n12 ) ( - ( + 0 Nl2MIN^01 ) ) ) 0 ) ( = ( + ( * ( - 1 ) lam3n0 ) ( * ( - 1 ) lam3n4 ) ( * ( - 1 ) lam3n5 ) ( * Nl2j_min^01 lam3n12 ) ( - ( + 0 Nl2j_min^01 ) ) ) 0 ) ( = ( + ( * ( - 1 ) lam3n0 ) ( * ( - 1 ) lam3n1 ) ( * ( - 1 ) lam3n2 ) ( * ( - 1 ) lam3n4 ) ( * 1 lam3n6 ) ( * 1 lam3n8 ) ( * ( - 1 ) lam3n11 ) ( * Nl2num^01 lam3n12 ) ) 0 ) ( = ( + ( * ( - 1 ) lam3n0 ) ( * ( - 1 ) lam3n3 ) ( * 1 lam3n4 ) ( * ( - 1 ) lam3n6 ) ( * ( - 1 ) lam3n9 ) ( * Nl2pid^01 lam3n12 ) ( - ( + 0 Nl2pid^01 ) ) ) 0 ) ) ))
(assert ( and ( <= ( + ( * ( - 1 ) undef133 ) undef135 ) 0 ) ( <= ( + 1 ( * ( - 1 ) undef135 ) ) 0 ) ( <= ( + 1 ( * ( - 1 ) undef141 ) ) 0 ) ( <= ( + 1 ( * ( - 1 ) undef143 ) ) 0 ) ( = ( + MIN^0 ( * ( - 1 ) undef135 ) ) 0 ) ( = ( + j_min^0 ( * ( - 1 ) undef141 ) ) 0 ) ( = ( + pid^0 ( * ( - 1 ) undef143 ) ) 0 ) ( = ( + ( - 1 ) MAX^0 ( * ( - 1 ) undef133 ) ) 0 ) ( = ( + ( - 1 ) num^0 ( * ( - 1 ) undef133 ) ) 0 ) ( <= ( + Nl2CT1 ( * ( + 0 Nl2MAX^01 ) MAX^0 ) ( * ( + 0 Nl2MIN^01 ) MIN^0 ) ( * ( + 0 Nl2j_min^01 ) j_min^0 ) ( * ( + 0 Nl2num^01 ) num^0 ) ( * ( + 0 Nl2pid^01 ) pid^0 ) ) 0 ) ( <= ( + ( * ( - 1 ) MAX^0 ) num^0 ) 0 ) ( <= ( + 1 MAX^0 MIN^0 ( * ( - 1 ) j_min^0 ) ( * ( - 1 ) num^0 ) pid^0 ) 0 ) ( <= ( + MAX^0 ( * ( - 1 ) num^0 ) ) 0 ) ( <= ( + ( - 1 ) ( * ( - 1 ) MIN^0 ) ) 0 ) ( <= ( + MAX^0 ( * ( - 1 ) j_min^0 ) ( * ( - 1 ) num^0 ) ( * ( - 1 ) pid^0 ) ) 0 ) ( <= ( + ( * ( - 1 ) MAX^0 ) num^0 ) 0 ) ( <= ( + MAX^0 ( * ( - 1 ) num^0 ) ) 0 ) ( <= ( + ( * ( - 1 ) MAX^0 ) num^0 ) 0 ) ( <= ( + 1 ( * ( - 1 ) MAX^0 ) num^0 ( * ( - 1 ) pid^0 ) ) 0 ) ( <= ( * ( - 1 ) num^0 ) 0 ) ( <= ( * ( - 1 ) pid^0 ) 0 ) ( <= ( + ( - 1 ) ( * ( - 1 ) MAX^0 ) MIN^0 ( * ( - 1 ) pid^0 ) ) 0 ) ( <= ( + 1 ( * ( - 1 ) MAX^0 ) ( * ( - 1 ) j_min^0 ) ) 0 ) ( <= ( + ( - 1 ) ( * ( - 1 ) MAX^0 ) ( * ( - 1 ) MIN^0 ) ) 0 ) ( <= ( + MAX^0 ( * ( - 1 ) num^0 ) ) 0 ) ( <= ( + ( - 1 ) ( * ( - 1 ) MIN^0 ) ) 0 ) ( <= ( + ( * ( - 1 ) MAX^0 ) ( * ( - 1 ) MIN^0 ) ( * ( - 1 ) num^0 ) ) 0 ) ))
(assert ( or ( and ( and ( >= lam8n0 0 ) ( >= lam8n1 0 ) ( >= lam8n2 0 ) ( >= lam8n3 0 ) ( >= lam8n4 0 ) ( >= lam8n5 0 ) ( >= lam8n6 0 ) ( >= lam8n7 0 ) ( >= lam8n8 0 ) ( >= lam8n9 0 ) ( >= lam8n10 0 ) ( >= lam8n11 0 ) ( >= lam8n12 0 ) ( >= lam8n13 0 ) ( >= lam8n14 0 ) ( >= lam8n15 0 ) ( >= lam8n16 0 ) ( >= lam8n17 0 ) ( >= lam8n18 0 ) ( >= lam8n19 0 ) ( >= lam8n20 0 ) ( >= lam8n21 0 ) ( >= lam8n22 0 ) ( >= lam8n23 0 ) ( >= lam8n24 0 ) ( >= lam8n25 0 ) ( >= lam8n27 0 ) ( > ( + ( * 1 lam8n4 ) ( * 1 lam8n5 ) ( * 1 lam8n6 ) ( * 1 lam8n7 ) ( * ( - 1 ) lam8n8 ) ( * ( - 1 ) lam8n9 ) ( * 50001 lam8n10 ) ( * 50001 lam8n11 ) ( * 50001 lam8n12 ) ( * 50001 lam8n13 ) ( * 50001 lam8n14 ) ( * 50001 lam8n15 ) ( * 50001 lam8n16 ) ( * 50001 lam8n17 ) ( * 50001 lam8n18 ) ( * 50001 lam8n19 ) ( * 50001 lam8n20 ) ( * 50001 lam8n21 ) ( * 50001 lam8n22 ) ( * 50001 lam8n23 ) ( * 50001 lam8n24 ) ( * 50001 lam8n25 ) ( * Nl2CT1 lam8n27 ) ( - 1 ( - ( + ( + RFN1_CT ( * RFN1_MAX^0 1 ) ) ( * RFN1_num^0 1 ) ) RFN1_CT ) ) ) 0 ) ( = ( + ( * 1 lam8n0 ) ( * ( - 1 ) lam8n1 ) ( * 1 lam8n4 ) ( * ( - 1 ) lam8n5 ) ( * ( - 1 ) lam8n6 ) ( * ( - 1 ) lam8n8 ) ( * ( - 1 ) lam8n9 ) ( * 1 lam8n10 ) ( * 1 lam8n11 ) ( * 1 lam8n12 ) ( * 1 lam8n13 ) ( * ( - 1 ) lam8n14 ) ( * ( - 1 ) lam8n15 ) ( * ( - 1 ) lam8n16 ) ( * ( - 2 ) lam8n17 ) ( * ( - 2 ) lam8n18 ) ( * ( - 2 ) lam8n19 ) ( * ( - 2 ) lam8n20 ) ( * ( - 2 ) lam8n21 ) ( * ( - 2 ) lam8n22 ) ( * ( - 2 ) lam8n23 ) ( * ( - 2 ) lam8n24 ) ( * 1 lam8n26 ) ( * Nl2MAX^01 lam8n27 ) ( - ( - ( + ( + 0 ( * RFN1_MAX^0 1 ) ) ( * RFN1_num^0 1 ) ) RFN1_MAX^0 ) ) ) 0 ) ( = ( + ( * ( - 1 ) lam8n1 ) ( * 1 lam8n4 ) ( * ( - 1 ) lam8n7 ) ( * 1 lam8n8 ) ( * ( - 1 ) lam8n9 ) ( * 1 lam8n10 ) ( * 1 lam8n11 ) ( * 1 lam8n12 ) ( * 1 lam8n13 ) ( * 1 lam8n14 ) ( * 1 lam8n15 ) ( * 1 lam8n16 ) ( * 1 lam8n17 ) ( * 1 lam8n18 ) ( * ( - 1 ) lam8n19 ) ( * ( - 1 ) lam8n20 ) ( * ( - 1 ) lam8n21 ) ( * ( - 1 ) lam8n22 ) ( * 50000 lam8n23 ) ( * 100003 lam8n24 ) ( * Nl2MIN^01 lam8n27 ) ( - ( - ( + 0 RFN1_MIN^0 ) RFN1_MIN^0 ) ) ) 0 ) ( = ( + ( * ( - 1 ) lam8n0 ) ( * ( - 1 ) lam8n2 ) ( * ( - 1 ) lam8n4 ) ( * ( - 1 ) lam8n5 ) ( * 1 lam8n10 ) ( * 1 lam8n11 ) ( * ( - 1 ) lam8n12 ) ( * ( - 1 ) lam8n13 ) ( * 1 lam8n14 ) ( * 1 lam8n15 ) ( * 1 lam8n16 ) ( * ( - 1 ) lam8n17 ) ( * 100003 lam8n18 ) ( * 1 lam8n19 ) ( * ( - 1 ) lam8n20 ) ( * ( - 1 ) lam8n21 ) ( * 100007 lam8n22 ) ( * 1 lam8n23 ) ( * ( - 1 ) lam8n24 ) ( * Nl2j_min^01 lam8n27 ) ( - ( - ( + 0 RFN1_j_min^0 ) RFN1_j_min^0 ) ) ) 0 ) ( = ( + ( * ( - 1 ) lam8n0 ) ( * ( - 1 ) lam8n1 ) ( * ( - 1 ) lam8n4 ) ( * 1 lam8n6 ) ( * ( - 2 ) lam8n10 ) ( * ( - 2 ) lam8n11 ) ( * ( - 2 ) lam8n12 ) ( * ( - 2 ) lam8n13 ) ( * ( - 1 ) lam8n14 ) ( * ( - 1 ) lam8n15 ) ( * 1 lam8n17 ) ( * 1 lam8n18 ) ( * 1 lam8n19 ) ( * 1 lam8n20 ) ( * 1 lam8n21 ) ( * 1 lam8n22 ) ( * 1 lam8n23 ) ( * 1 lam8n24 ) ( * ( - 1 ) lam8n25 ) ( * ( - 1 ) lam8n26 ) ( * Nl2num^01 lam8n27 ) ( - ( - RFN1_num^0 ) ) ) 0 ) ( = ( + ( * ( - 1 ) lam8n0 ) ( * 1 lam8n2 ) ( * ( - 1 ) lam8n3 ) ( * 1 lam8n4 ) ( * ( - 1 ) lam8n6 ) ( * ( - 1 ) lam8n8 ) ( * 1 lam8n10 ) ( * ( - 1 ) lam8n11 ) ( * 1 lam8n12 ) ( * ( - 1 ) lam8n13 ) ( * 1 lam8n14 ) ( * ( - 1 ) lam8n15 ) ( * ( - 1 ) lam8n16 ) ( * ( - 1 ) lam8n17 ) ( * 1 lam8n18 ) ( * ( - 1 ) lam8n19 ) ( * 1 lam8n20 ) ( * ( - 1 ) lam8n21 ) ( * 1 lam8n22 ) ( * ( - 1 ) lam8n23 ) ( * 1 lam8n24 ) ( * Nl2pid^01 lam8n27 ) ( - ( - ( + 0 RFN1_pid^0 ) RFN1_pid^0 ) ) ) 0 ) ) ( and ( and ( >= lam6n0 0 ) ( >= lam6n1 0 ) ( >= lam6n2 0 ) ( >= lam6n3 0 ) ( >= lam6n4 0 ) ( >= lam6n5 0 ) ( >= lam6n6 0 ) ( >= lam6n7 0 ) ( >= lam6n8 0 ) ( >= lam6n9 0 ) ( >= lam6n10 0 ) ( >= lam6n11 0 ) ( >= lam6n12 0 ) ( >= lam6n13 0 ) ( >= lam6n14 0 ) ( >= lam6n15 0 ) ( >= lam6n16 0 ) ( >= lam6n17 0 ) ( >= lam6n18 0 ) ( >= lam6n19 0 ) ( >= lam6n20 0 ) ( >= lam6n21 0 ) ( >= lam6n22 0 ) ( >= lam6n23 0 ) ( >= lam6n24 0 ) ( >= lam6n25 0 ) ( >= lam6n27 0 ) ( > ( + ( * 1 lam6n4 ) ( * 1 lam6n5 ) ( * 1 lam6n6 ) ( * 1 lam6n7 ) ( * ( - 1 ) lam6n8 ) ( * ( - 1 ) lam6n9 ) ( * 50001 lam6n10 ) ( * 50001 lam6n11 ) ( * 50001 lam6n12 ) ( * 50001 lam6n13 ) ( * 50001 lam6n14 ) ( * 50001 lam6n15 ) ( * 50001 lam6n16 ) ( * 50001 lam6n17 ) ( * 50001 lam6n18 ) ( * 50001 lam6n19 ) ( * 50001 lam6n20 ) ( * 50001 lam6n21 ) ( * 50001 lam6n22 ) ( * 50001 lam6n23 ) ( * 50001 lam6n24 ) ( * 50001 lam6n25 ) ( * Nl2CT1 lam6n27 ) ( - 1 ( - RFN1_CT ) ) ) 0 ) ( = ( + ( * 1 lam6n0 ) ( * ( - 1 ) lam6n1 ) ( * 1 lam6n4 ) ( * ( - 1 ) lam6n5 ) ( * ( - 1 ) lam6n6 ) ( * ( - 1 ) lam6n8 ) ( * ( - 1 ) lam6n9 ) ( * 1 lam6n10 ) ( * 1 lam6n11 ) ( * 1 lam6n12 ) ( * 1 lam6n13 ) ( * ( - 1 ) lam6n14 ) ( * ( - 1 ) lam6n15 ) ( * ( - 1 ) lam6n16 ) ( * ( - 2 ) lam6n17 ) ( * ( - 2 ) lam6n18 ) ( * ( - 2 ) lam6n19 ) ( * ( - 2 ) lam6n20 ) ( * ( - 2 ) lam6n21 ) ( * ( - 2 ) lam6n22 ) ( * ( - 2 ) lam6n23 ) ( * ( - 2 ) lam6n24 ) ( * 1 lam6n26 ) ( * Nl2MAX^01 lam6n27 ) ( - ( - RFN1_MAX^0 ) ) ) 0 ) ( = ( + ( * ( - 1 ) lam6n1 ) ( * 1 lam6n4 ) ( * ( - 1 ) lam6n7 ) ( * 1 lam6n8 ) ( * ( - 1 ) lam6n9 ) ( * 1 lam6n10 ) ( * 1 lam6n11 ) ( * 1 lam6n12 ) ( * 1 lam6n13 ) ( * 1 lam6n14 ) ( * 1 lam6n15 ) ( * 1 lam6n16 ) ( * 1 lam6n17 ) ( * 1 lam6n18 ) ( * ( - 1 ) lam6n19 ) ( * ( - 1 ) lam6n20 ) ( * ( - 1 ) lam6n21 ) ( * ( - 1 ) lam6n22 ) ( * 50000 lam6n23 ) ( * 100003 lam6n24 ) ( * Nl2MIN^01 lam6n27 ) ( - ( - RFN1_MIN^0 ) ) ) 0 ) ( = ( + ( * ( - 1 ) lam6n0 ) ( * ( - 1 ) lam6n2 ) ( * ( - 1 ) lam6n4 ) ( * ( - 1 ) lam6n5 ) ( * 1 lam6n10 ) ( * 1 lam6n11 ) ( * ( - 1 ) lam6n12 ) ( * ( - 1 ) lam6n13 ) ( * 1 lam6n14 ) ( * 1 lam6n15 ) ( * 1 lam6n16 ) ( * ( - 1 ) lam6n17 ) ( * 100003 lam6n18 ) ( * 1 lam6n19 ) ( * ( - 1 ) lam6n20 ) ( * ( - 1 ) lam6n21 ) ( * 100007 lam6n22 ) ( * 1 lam6n23 ) ( * ( - 1 ) lam6n24 ) ( * Nl2j_min^01 lam6n27 ) ( - ( - RFN1_j_min^0 ) ) ) 0 ) ( = ( + ( * ( - 1 ) lam6n0 ) ( * ( - 1 ) lam6n1 ) ( * ( - 1 ) lam6n4 ) ( * 1 lam6n6 ) ( * ( - 2 ) lam6n10 ) ( * ( - 2 ) lam6n11 ) ( * ( - 2 ) lam6n12 ) ( * ( - 2 ) lam6n13 ) ( * ( - 1 ) lam6n14 ) ( * ( - 1 ) lam6n15 ) ( * 1 lam6n17 ) ( * 1 lam6n18 ) ( * 1 lam6n19 ) ( * 1 lam6n20 ) ( * 1 lam6n21 ) ( * 1 lam6n22 ) ( * 1 lam6n23 ) ( * 1 lam6n24 ) ( * ( - 1 ) lam6n25 ) ( * ( - 1 ) lam6n26 ) ( * Nl2num^01 lam6n27 ) ( - ( - RFN1_num^0 ) ) ) 0 ) ( = ( + ( * ( - 1 ) lam6n0 ) ( * 1 lam6n2 ) ( * ( - 1 ) lam6n3 ) ( * 1 lam6n4 ) ( * ( - 1 ) lam6n6 ) ( * ( - 1 ) lam6n8 ) ( * 1 lam6n10 ) ( * ( - 1 ) lam6n11 ) ( * 1 lam6n12 ) ( * ( - 1 ) lam6n13 ) ( * 1 lam6n14 ) ( * ( - 1 ) lam6n15 ) ( * ( - 1 ) lam6n16 ) ( * ( - 1 ) lam6n17 ) ( * 1 lam6n18 ) ( * ( - 1 ) lam6n19 ) ( * 1 lam6n20 ) ( * ( - 1 ) lam6n21 ) ( * 1 lam6n22 ) ( * ( - 1 ) lam6n23 ) ( * 1 lam6n24 ) ( * Nl2pid^01 lam6n27 ) ( - ( - RFN1_pid^0 ) ) ) 0 ) ) ( and ( >= lam7n0 0 ) ( >= lam7n1 0 ) ( >= lam7n2 0 ) ( >= lam7n3 0 ) ( >= lam7n4 0 ) ( >= lam7n5 0 ) ( >= lam7n6 0 ) ( >= lam7n7 0 ) ( >= lam7n8 0 ) ( >= lam7n9 0 ) ( >= lam7n10 0 ) ( >= lam7n11 0 ) ( >= lam7n12 0 ) ( >= lam7n13 0 ) ( >= lam7n14 0 ) ( >= lam7n15 0 ) ( >= lam7n16 0 ) ( >= lam7n17 0 ) ( >= lam7n18 0 ) ( >= lam7n19 0 ) ( >= lam7n20 0 ) ( >= lam7n21 0 ) ( >= lam7n22 0 ) ( >= lam7n23 0 ) ( >= lam7n24 0 ) ( >= lam7n25 0 ) ( >= lam7n27 0 ) ( > ( + ( * 1 lam7n4 ) ( * 1 lam7n5 ) ( * 1 lam7n6 ) ( * 1 lam7n7 ) ( * ( - 1 ) lam7n8 ) ( * ( - 1 ) lam7n9 ) ( * 50001 lam7n10 ) ( * 50001 lam7n11 ) ( * 50001 lam7n12 ) ( * 50001 lam7n13 ) ( * 50001 lam7n14 ) ( * 50001 lam7n15 ) ( * 50001 lam7n16 ) ( * 50001 lam7n17 ) ( * 50001 lam7n18 ) ( * 50001 lam7n19 ) ( * 50001 lam7n20 ) ( * 50001 lam7n21 ) ( * 50001 lam7n22 ) ( * 50001 lam7n23 ) ( * 50001 lam7n24 ) ( * 50001 lam7n25 ) ( * Nl2CT1 lam7n27 ) ( - 1 ( + ( - ( + ( + RFN1_CT ( * RFN1_MAX^0 1 ) ) ( * RFN1_num^0 1 ) ) RFN1_CT ) 1 ) ) ) 0 ) ( = ( + ( * 1 lam7n0 ) ( * ( - 1 ) lam7n1 ) ( * 1 lam7n4 ) ( * ( - 1 ) lam7n5 ) ( * ( - 1 ) lam7n6 ) ( * ( - 1 ) lam7n8 ) ( * ( - 1 ) lam7n9 ) ( * 1 lam7n10 ) ( * 1 lam7n11 ) ( * 1 lam7n12 ) ( * 1 lam7n13 ) ( * ( - 1 ) lam7n14 ) ( * ( - 1 ) lam7n15 ) ( * ( - 1 ) lam7n16 ) ( * ( - 2 ) lam7n17 ) ( * ( - 2 ) lam7n18 ) ( * ( - 2 ) lam7n19 ) ( * ( - 2 ) lam7n20 ) ( * ( - 2 ) lam7n21 ) ( * ( - 2 ) lam7n22 ) ( * ( - 2 ) lam7n23 ) ( * ( - 2 ) lam7n24 ) ( * 1 lam7n26 ) ( * Nl2MAX^01 lam7n27 ) ( - ( - ( + ( + 0 ( * RFN1_MAX^0 1 ) ) ( * RFN1_num^0 1 ) ) RFN1_MAX^0 ) ) ) 0 ) ( = ( + ( * ( - 1 ) lam7n1 ) ( * 1 lam7n4 ) ( * ( - 1 ) lam7n7 ) ( * 1 lam7n8 ) ( * ( - 1 ) lam7n9 ) ( * 1 lam7n10 ) ( * 1 lam7n11 ) ( * 1 lam7n12 ) ( * 1 lam7n13 ) ( * 1 lam7n14 ) ( * 1 lam7n15 ) ( * 1 lam7n16 ) ( * 1 lam7n17 ) ( * 1 lam7n18 ) ( * ( - 1 ) lam7n19 ) ( * ( - 1 ) lam7n20 ) ( * ( - 1 ) lam7n21 ) ( * ( - 1 ) lam7n22 ) ( * 50000 lam7n23 ) ( * 100003 lam7n24 ) ( * Nl2MIN^01 lam7n27 ) ( - ( - ( + 0 RFN1_MIN^0 ) RFN1_MIN^0 ) ) ) 0 ) ( = ( + ( * ( - 1 ) lam7n0 ) ( * ( - 1 ) lam7n2 ) ( * ( - 1 ) lam7n4 ) ( * ( - 1 ) lam7n5 ) ( * 1 lam7n10 ) ( * 1 lam7n11 ) ( * ( - 1 ) lam7n12 ) ( * ( - 1 ) lam7n13 ) ( * 1 lam7n14 ) ( * 1 lam7n15 ) ( * 1 lam7n16 ) ( * ( - 1 ) lam7n17 ) ( * 100003 lam7n18 ) ( * 1 lam7n19 ) ( * ( - 1 ) lam7n20 ) ( * ( - 1 ) lam7n21 ) ( * 100007 lam7n22 ) ( * 1 lam7n23 ) ( * ( - 1 ) lam7n24 ) ( * Nl2j_min^01 lam7n27 ) ( - ( - ( + 0 RFN1_j_min^0 ) RFN1_j_min^0 ) ) ) 0 ) ( = ( + ( * ( - 1 ) lam7n0 ) ( * ( - 1 ) lam7n1 ) ( * ( - 1 ) lam7n4 ) ( * 1 lam7n6 ) ( * ( - 2 ) lam7n10 ) ( * ( - 2 ) lam7n11 ) ( * ( - 2 ) lam7n12 ) ( * ( - 2 ) lam7n13 ) ( * ( - 1 ) lam7n14 ) ( * ( - 1 ) lam7n15 ) ( * 1 lam7n17 ) ( * 1 lam7n18 ) ( * 1 lam7n19 ) ( * 1 lam7n20 ) ( * 1 lam7n21 ) ( * 1 lam7n22 ) ( * 1 lam7n23 ) ( * 1 lam7n24 ) ( * ( - 1 ) lam7n25 ) ( * ( - 1 ) lam7n26 ) ( * Nl2num^01 lam7n27 ) ( - ( - RFN1_num^0 ) ) ) 0 ) ( = ( + ( * ( - 1 ) lam7n0 ) ( * 1 lam7n2 ) ( * ( - 1 ) lam7n3 ) ( * 1 lam7n4 ) ( * ( - 1 ) lam7n6 ) ( * ( - 1 ) lam7n8 ) ( * 1 lam7n10 ) ( * ( - 1 ) lam7n11 ) ( * 1 lam7n12 ) ( * ( - 1 ) lam7n13 ) ( * 1 lam7n14 ) ( * ( - 1 ) lam7n15 ) ( * ( - 1 ) lam7n16 ) ( * ( - 1 ) lam7n17 ) ( * 1 lam7n18 ) ( * ( - 1 ) lam7n19 ) ( * 1 lam7n20 ) ( * ( - 1 ) lam7n21 ) ( * 1 lam7n22 ) ( * ( - 1 ) lam7n23 ) ( * 1 lam7n24 ) ( * Nl2pid^01 lam7n27 ) ( - ( - ( + 0 RFN1_pid^0 ) RFN1_pid^0 ) ) ) 0 ) ) ) ) ( and ( >= lam5n0 0 ) ( >= lam5n1 0 ) ( >= lam5n2 0 ) ( >= lam5n3 0 ) ( >= lam5n4 0 ) ( >= lam5n5 0 ) ( >= lam5n6 0 ) ( >= lam5n7 0 ) ( >= lam5n8 0 ) ( >= lam5n9 0 ) ( >= lam5n10 0 ) ( >= lam5n11 0 ) ( >= lam5n12 0 ) ( >= lam5n13 0 ) ( >= lam5n14 0 ) ( >= lam5n15 0 ) ( >= lam5n16 0 ) ( >= lam5n17 0 ) ( >= lam5n18 0 ) ( >= lam5n19 0 ) ( >= lam5n20 0 ) ( >= lam5n21 0 ) ( >= lam5n22 0 ) ( >= lam5n23 0 ) ( >= lam5n24 0 ) ( >= lam5n25 0 ) ( >= lam5n27 0 ) ( > ( + ( * 1 lam5n4 ) ( * 1 lam5n5 ) ( * 1 lam5n6 ) ( * 1 lam5n7 ) ( * ( - 1 ) lam5n8 ) ( * ( - 1 ) lam5n9 ) ( * 50001 lam5n10 ) ( * 50001 lam5n11 ) ( * 50001 lam5n12 ) ( * 50001 lam5n13 ) ( * 50001 lam5n14 ) ( * 50001 lam5n15 ) ( * 50001 lam5n16 ) ( * 50001 lam5n17 ) ( * 50001 lam5n18 ) ( * 50001 lam5n19 ) ( * 50001 lam5n20 ) ( * 50001 lam5n21 ) ( * 50001 lam5n22 ) ( * 50001 lam5n23 ) ( * 50001 lam5n24 ) ( * 50001 lam5n25 ) ( * Nl2CT1 lam5n27 ) ( - 1 ) ) 0 ) ( = ( + ( * 1 lam5n0 ) ( * ( - 1 ) lam5n1 ) ( * 1 lam5n4 ) ( * ( - 1 ) lam5n5 ) ( * ( - 1 ) lam5n6 ) ( * ( - 1 ) lam5n8 ) ( * ( - 1 ) lam5n9 ) ( * 1 lam5n10 ) ( * 1 lam5n11 ) ( * 1 lam5n12 ) ( * 1 lam5n13 ) ( * ( - 1 ) lam5n14 ) ( * ( - 1 ) lam5n15 ) ( * ( - 1 ) lam5n16 ) ( * ( - 2 ) lam5n17 ) ( * ( - 2 ) lam5n18 ) ( * ( - 2 ) lam5n19 ) ( * ( - 2 ) lam5n20 ) ( * ( - 2 ) lam5n21 ) ( * ( - 2 ) lam5n22 ) ( * ( - 2 ) lam5n23 ) ( * ( - 2 ) lam5n24 ) ( * 1 lam5n26 ) ( * Nl2MAX^01 lam5n27 ) ) 0 ) ( = ( + ( * ( - 1 ) lam5n1 ) ( * 1 lam5n4 ) ( * ( - 1 ) lam5n7 ) ( * 1 lam5n8 ) ( * ( - 1 ) lam5n9 ) ( * 1 lam5n10 ) ( * 1 lam5n11 ) ( * 1 lam5n12 ) ( * 1 lam5n13 ) ( * 1 lam5n14 ) ( * 1 lam5n15 ) ( * 1 lam5n16 ) ( * 1 lam5n17 ) ( * 1 lam5n18 ) ( * ( - 1 ) lam5n19 ) ( * ( - 1 ) lam5n20 ) ( * ( - 1 ) lam5n21 ) ( * ( - 1 ) lam5n22 ) ( * 50000 lam5n23 ) ( * 100003 lam5n24 ) ( * Nl2MIN^01 lam5n27 ) ) 0 ) ( = ( + ( * ( - 1 ) lam5n0 ) ( * ( - 1 ) lam5n2 ) ( * ( - 1 ) lam5n4 ) ( * ( - 1 ) lam5n5 ) ( * 1 lam5n10 ) ( * 1 lam5n11 ) ( * ( - 1 ) lam5n12 ) ( * ( - 1 ) lam5n13 ) ( * 1 lam5n14 ) ( * 1 lam5n15 ) ( * 1 lam5n16 ) ( * ( - 1 ) lam5n17 ) ( * 100003 lam5n18 ) ( * 1 lam5n19 ) ( * ( - 1 ) lam5n20 ) ( * ( - 1 ) lam5n21 ) ( * 100007 lam5n22 ) ( * 1 lam5n23 ) ( * ( - 1 ) lam5n24 ) ( * Nl2j_min^01 lam5n27 ) ) 0 ) ( = ( + ( * ( - 1 ) lam5n0 ) ( * ( - 1 ) lam5n1 ) ( * ( - 1 ) lam5n4 ) ( * 1 lam5n6 ) ( * ( - 2 ) lam5n10 ) ( * ( - 2 ) lam5n11 ) ( * ( - 2 ) lam5n12 ) ( * ( - 2 ) lam5n13 ) ( * ( - 1 ) lam5n14 ) ( * ( - 1 ) lam5n15 ) ( * 1 lam5n17 ) ( * 1 lam5n18 ) ( * 1 lam5n19 ) ( * 1 lam5n20 ) ( * 1 lam5n21 ) ( * 1 lam5n22 ) ( * 1 lam5n23 ) ( * 1 lam5n24 ) ( * ( - 1 ) lam5n25 ) ( * ( - 1 ) lam5n26 ) ( * Nl2num^01 lam5n27 ) ) 0 ) ( = ( + ( * ( - 1 ) lam5n0 ) ( * 1 lam5n2 ) ( * ( - 1 ) lam5n3 ) ( * 1 lam5n4 ) ( * ( - 1 ) lam5n6 ) ( * ( - 1 ) lam5n8 ) ( * 1 lam5n10 ) ( * ( - 1 ) lam5n11 ) ( * 1 lam5n12 ) ( * ( - 1 ) lam5n13 ) ( * 1 lam5n14 ) ( * ( - 1 ) lam5n15 ) ( * ( - 1 ) lam5n16 ) ( * ( - 1 ) lam5n17 ) ( * 1 lam5n18 ) ( * ( - 1 ) lam5n19 ) ( * 1 lam5n20 ) ( * ( - 1 ) lam5n21 ) ( * 1 lam5n22 ) ( * ( - 1 ) lam5n23 ) ( * 1 lam5n24 ) ( * Nl2pid^01 lam5n27 ) ) 0 ) ) ))
(check-sat)
(exit)
